1630398
29 5 9526
5 40 3130
40 56 3489
56 32 1427
32 12 4813
12 1 10465
1 47 14424
47 20 12843
20 4 4440
4 48 7248
48 2 7938
2 63 25131
63 24 26977
24 61 5437
61 42 10110
42 3 13084
3 21 17216
21 30 34374
30 25 1249
25 41 5278
41 6 10602
6 64 32039
64 11 35955
11 66 13370
66 26 57991
26 55 61621
55 34 20835
34 46 36286
46 43 69394
43 7 52950
7 67 19183
67 38 15200
38 31 91427
31 22 39447
22 52 46274
52 33 101509
33 57 88918
57 18 27906
18 10 28652
10 14 62052
14 44 62420
44 50 70964
50 28 10810
28 16 30472
16 59 10880
59 36 8563
36 53 53605
53 37 6554
37 62 30446
62 39 8740
39 51 11004
51 35 8926
35 68 19070
68 8 34471
8 15 6874
15 58 6904
58 9 1777
9 17 5356
17 27 1445
27 45 8214
45 65 16726
65 13 18316
13 54 13536
54 19 26950
19 49 8895
49 23 4353
23 60 7498
60 29 6419
